
Log started (V12.5.0.0) Sun Sep 29 12:54:49 2013


Specified objective sense: MINIMIZE
Selected objective  name:  costs
Selected RHS        name:  RHS
Selected bound      name:  BOUND

Problem '/Users/mike/CmplServer/127.0.0.1-2013-09-29-10-54-48-391307/assignment.mps' read.
Read time = 0.03 sec. (0.00 ticks)
Tried aggregator 1 time.
Presolve time = 0.01 sec. (0.01 ticks)
Found incumbent of value 33.000000 after 0.07 sec. (0.04 ticks)
Probing time = 0.00 sec. (0.01 ticks)
Tried aggregator 1 time.
Presolve time = 0.00 sec. (0.01 ticks)
Probing time = 0.00 sec. (0.01 ticks)
Clique table members: 7.
MIP emphasis: balance optimality and feasibility.
MIP search method: dynamic search.
Parallel mode: deterministic, using up to 4 threads.
Root relaxation solution time = 0.00 sec. (0.01 ticks)

        Nodes                                         Cuts/
   Node  Left     Objective  IInf  Best Integer    Best Bound    ItCnt     Gap

*     0+    0                           33.0000        0.0000        3  100.00%
*     0+    0                           29.0000        0.0000        3  100.00%
      0     0        cutoff             29.0000       29.0000        3    0.00%

Root node processing (before b&c):
  Real time             =    0.00 sec. (0.03 ticks)
Parallel b&c, 4 threads:
  Real time             =    0.00 sec. (0.00 ticks)
  Sync time (average)   =    0.00 sec.
  Wait time (average)   =    0.00 sec.
                          ------------
Total (root+branch&cut) =    0.00 sec. (0.03 ticks)

Solution pool: 2 solutions saved.

MIP - Integer optimal solution:  Objective =  2.9000000000e+01
Solution time =    0.08 sec.  Iterations = 3  Nodes = 0
Deterministic time = 0.09 ticks  (1.11 ticks/sec)


Solution pool written to file '/Users/mike/CmplServer/127.0.0.1-2013-09-29-10-54-48-391307/assignment.gsol'.

Log started (V12.5.0.0) Sun Sep 29 12:55:46 2013


Specified objective sense: MINIMIZE
Selected objective  name:  costs
Selected RHS        name:  RHS
Selected bound      name:  BOUND

Problem '/Users/mike/CmplServer/127.0.0.1-2013-09-29-10-55-46-996637/assignment.mps' read.
Read time = 0.00 sec. (0.00 ticks)
Tried aggregator 1 time.
Presolve time = 0.00 sec. (0.01 ticks)
Found incumbent of value 33.000000 after 0.00 sec. (0.04 ticks)
Probing time = 0.00 sec. (0.01 ticks)
Tried aggregator 1 time.
Presolve time = 0.00 sec. (0.01 ticks)
Probing time = 0.00 sec. (0.01 ticks)
Clique table members: 7.
MIP emphasis: balance optimality and feasibility.
MIP search method: dynamic search.
Parallel mode: deterministic, using up to 4 threads.
Root relaxation solution time = 0.00 sec. (0.01 ticks)

        Nodes                                         Cuts/
   Node  Left     Objective  IInf  Best Integer    Best Bound    ItCnt     Gap

*     0+    0                           33.0000        0.0000        3  100.00%
*     0+    0                           29.0000        0.0000        3  100.00%
      0     0        cutoff             29.0000       29.0000        3    0.00%

Root node processing (before b&c):
  Real time             =    0.00 sec. (0.03 ticks)
Parallel b&c, 4 threads:
  Real time             =    0.00 sec. (0.00 ticks)
  Sync time (average)   =    0.00 sec.
  Wait time (average)   =    0.00 sec.
                          ------------
Total (root+branch&cut) =    0.00 sec. (0.03 ticks)

Solution pool: 2 solutions saved.

MIP - Integer optimal solution:  Objective =  2.9000000000e+01
Solution time =    0.00 sec.  Iterations = 3  Nodes = 0
Deterministic time = 0.09 ticks  (21.91 ticks/sec)


Solution pool written to file '/Users/mike/CmplServer/127.0.0.1-2013-09-29-10-55-46-996637/assignment.gsol'.

Log started (V12.5.0.0) Sun Sep 29 12:56:22 2013


Specified objective sense: MINIMIZE
Selected objective  name:  costs
Selected RHS        name:  RHS
Selected bound      name:  BOUND

Problem '/Users/mike/CmplServer/127.0.0.1-2013-09-29-10-56-22-534708/assignment.mps' read.
Read time = 0.00 sec. (0.00 ticks)
Tried aggregator 1 time.
Presolve time = 0.00 sec. (0.01 ticks)
Found incumbent of value 33.000000 after 0.00 sec. (0.04 ticks)
Probing time = 0.00 sec. (0.01 ticks)
Tried aggregator 1 time.
Presolve time = 0.00 sec. (0.01 ticks)
Probing time = 0.00 sec. (0.01 ticks)
Clique table members: 7.
MIP emphasis: balance optimality and feasibility.
MIP search method: dynamic search.
Parallel mode: deterministic, using up to 4 threads.
Root relaxation solution time = 0.00 sec. (0.01 ticks)

        Nodes                                         Cuts/
   Node  Left     Objective  IInf  Best Integer    Best Bound    ItCnt     Gap

*     0+    0                           33.0000        0.0000        3  100.00%
*     0+    0                           29.0000        0.0000        3  100.00%
      0     0        cutoff             29.0000       29.0000        3    0.00%

Root node processing (before b&c):
  Real time             =    0.00 sec. (0.03 ticks)
Parallel b&c, 4 threads:
  Real time             =    0.00 sec. (0.00 ticks)
  Sync time (average)   =    0.00 sec.
  Wait time (average)   =    0.00 sec.
                          ------------
Total (root+branch&cut) =    0.00 sec. (0.03 ticks)

Solution pool: 2 solutions saved.

MIP - Integer optimal solution:  Objective =  2.9000000000e+01
Solution time =    0.00 sec.  Iterations = 3  Nodes = 0
Deterministic time = 0.09 ticks  (21.77 ticks/sec)


Solution pool written to file '/Users/mike/CmplServer/127.0.0.1-2013-09-29-10-56-22-534708/assignment.gsol'.

Log started (V12.5.0.0) Sun Sep 29 12:57:50 2013


Specified objective sense: MINIMIZE
Selected objective  name:  costs
Selected RHS        name:  RHS
Selected bound      name:  BOUND

Problem 'assignment_370545.mps' read.
Read time = 0.00 sec. (0.00 ticks)
Tried aggregator 1 time.
Presolve time = 0.00 sec. (0.01 ticks)
Found incumbent of value 33.000000 after 0.00 sec. (0.04 ticks)
Probing time = 0.00 sec. (0.01 ticks)
Tried aggregator 1 time.
Presolve time = 0.00 sec. (0.01 ticks)
Probing time = 0.00 sec. (0.01 ticks)
Clique table members: 7.
MIP emphasis: balance optimality and feasibility.
MIP search method: dynamic search.
Parallel mode: deterministic, using up to 4 threads.
Root relaxation solution time = 0.00 sec. (0.01 ticks)

        Nodes                                         Cuts/
   Node  Left     Objective  IInf  Best Integer    Best Bound    ItCnt     Gap

*     0+    0                           33.0000        0.0000        3  100.00%
*     0+    0                           29.0000        0.0000        3  100.00%
      0     0        cutoff             29.0000       29.0000        3    0.00%

Root node processing (before b&c):
  Real time             =    0.00 sec. (0.03 ticks)
Parallel b&c, 4 threads:
  Real time             =    0.00 sec. (0.00 ticks)
  Sync time (average)   =    0.00 sec.
  Wait time (average)   =    0.00 sec.
                          ------------
Total (root+branch&cut) =    0.00 sec. (0.03 ticks)

Solution pool: 2 solutions saved.

MIP - Integer optimal solution:  Objective =  2.9000000000e+01
Solution time =    0.00 sec.  Iterations = 3  Nodes = 0
Deterministic time = 0.09 ticks  (20.97 ticks/sec)


Solution pool written to file 'assignment_370545.gsol'.

Log started (V12.5.0.0) Sun Sep 29 12:59:01 2013


Specified objective sense: MINIMIZE
Selected objective  name:  costs
Selected RHS        name:  RHS
Selected bound      name:  BOUND

Problem '/Users/mike/CmplServer/127.0.0.1-2013-09-29-10-59-01-540303/assignment.mps' read.
Read time = 0.00 sec. (0.00 ticks)
Tried aggregator 1 time.
Presolve time = 0.00 sec. (0.01 ticks)
Found incumbent of value 33.000000 after 0.00 sec. (0.04 ticks)
Probing time = 0.00 sec. (0.01 ticks)
Tried aggregator 1 time.
Presolve time = 0.00 sec. (0.01 ticks)
Probing time = 0.00 sec. (0.01 ticks)
Clique table members: 7.
MIP emphasis: balance optimality and feasibility.
MIP search method: dynamic search.
Parallel mode: deterministic, using up to 4 threads.
Root relaxation solution time = 0.00 sec. (0.01 ticks)

        Nodes                                         Cuts/
   Node  Left     Objective  IInf  Best Integer    Best Bound    ItCnt     Gap

*     0+    0                           33.0000        0.0000        3  100.00%
*     0+    0                           29.0000        0.0000        3  100.00%
      0     0        cutoff             29.0000       29.0000        3    0.00%

Root node processing (before b&c):
  Real time             =    0.00 sec. (0.03 ticks)
Parallel b&c, 4 threads:
  Real time             =    0.00 sec. (0.00 ticks)
  Sync time (average)   =    0.00 sec.
  Wait time (average)   =    0.00 sec.
                          ------------
Total (root+branch&cut) =    0.00 sec. (0.03 ticks)

Solution pool: 2 solutions saved.

MIP - Integer optimal solution:  Objective =  2.9000000000e+01
Solution time =    0.00 sec.  Iterations = 3  Nodes = 0
Deterministic time = 0.09 ticks  (21.29 ticks/sec)


Solution pool written to file '/Users/mike/CmplServer/127.0.0.1-2013-09-29-10-59-01-540303/assignment.gsol'.

Log started (V12.5.0.0) Sun Sep 29 12:59:47 2013


Specified objective sense: MINIMIZE
Selected objective  name:  costs
Selected RHS        name:  RHS
Selected bound      name:  BOUND

Problem '/Users/mike/CmplServer/127.0.0.1-2013-09-29-10-59-47-993849/assignment.mps' read.
Read time = 0.00 sec. (0.00 ticks)
Tried aggregator 1 time.
Presolve time = 0.00 sec. (0.01 ticks)
Found incumbent of value 33.000000 after 0.00 sec. (0.04 ticks)
Probing time = 0.00 sec. (0.01 ticks)
Tried aggregator 1 time.
Presolve time = 0.00 sec. (0.01 ticks)
Probing time = 0.00 sec. (0.01 ticks)
Clique table members: 7.
MIP emphasis: balance optimality and feasibility.
MIP search method: dynamic search.
Parallel mode: deterministic, using up to 4 threads.
Root relaxation solution time = 0.00 sec. (0.01 ticks)

        Nodes                                         Cuts/
   Node  Left     Objective  IInf  Best Integer    Best Bound    ItCnt     Gap

*     0+    0                           33.0000        0.0000        3  100.00%
*     0+    0                           29.0000        0.0000        3  100.00%
      0     0        cutoff             29.0000       29.0000        3    0.00%

Root node processing (before b&c):
  Real time             =    0.00 sec. (0.03 ticks)
Parallel b&c, 4 threads:
  Real time             =    0.00 sec. (0.00 ticks)
  Sync time (average)   =    0.00 sec.
  Wait time (average)   =    0.00 sec.
                          ------------
Total (root+branch&cut) =    0.00 sec. (0.03 ticks)

Solution pool: 2 solutions saved.

MIP - Integer optimal solution:  Objective =  2.9000000000e+01
Solution time =    0.00 sec.  Iterations = 3  Nodes = 0
Deterministic time = 0.09 ticks  (27.15 ticks/sec)


Solution pool written to file '/Users/mike/CmplServer/127.0.0.1-2013-09-29-10-59-47-993849/assignment.gsol'.

Log started (V12.5.0.0) Sun Sep 29 13:00:09 2013


Specified objective sense: MINIMIZE
Selected objective  name:  costs
Selected RHS        name:  RHS
Selected bound      name:  BOUND

Problem '/Users/mike/CmplServer/127.0.0.1-2013-09-29-11-00-09-347403/assignment.mps' read.
Read time = 0.00 sec. (0.00 ticks)
Tried aggregator 1 time.
Presolve time = 0.00 sec. (0.01 ticks)
Found incumbent of value 33.000000 after 0.00 sec. (0.04 ticks)
Probing time = 0.00 sec. (0.01 ticks)
Tried aggregator 1 time.
Presolve time = 0.00 sec. (0.01 ticks)
Probing time = 0.00 sec. (0.01 ticks)
Clique table members: 7.
MIP emphasis: balance optimality and feasibility.
MIP search method: dynamic search.
Parallel mode: deterministic, using up to 4 threads.
Root relaxation solution time = 0.00 sec. (0.01 ticks)

        Nodes                                         Cuts/
   Node  Left     Objective  IInf  Best Integer    Best Bound    ItCnt     Gap

*     0+    0                           33.0000        0.0000        3  100.00%
*     0+    0                           29.0000        0.0000        3  100.00%
      0     0        cutoff             29.0000       29.0000        3    0.00%

Root node processing (before b&c):
  Real time             =    0.00 sec. (0.03 ticks)
Parallel b&c, 4 threads:
  Real time             =    0.00 sec. (0.00 ticks)
  Sync time (average)   =    0.00 sec.
  Wait time (average)   =    0.00 sec.
                          ------------
Total (root+branch&cut) =    0.00 sec. (0.03 ticks)

Solution pool: 2 solutions saved.

MIP - Integer optimal solution:  Objective =  2.9000000000e+01
Solution time =    0.00 sec.  Iterations = 3  Nodes = 0
Deterministic time = 0.09 ticks  (27.76 ticks/sec)


Solution pool written to file '/Users/mike/CmplServer/127.0.0.1-2013-09-29-11-00-09-347403/assignment.gsol'.

Log started (V12.5.0.0) Sun Sep 29 13:08:59 2013


Specified objective sense: MINIMIZE
Selected objective  name:  costs
Selected RHS        name:  RHS
Selected bound      name:  BOUND

Problem '/Users/mike/CmplServer/127.0.0.1-2013-09-29-11-08-59-908667/assignment.mps' read.
Read time = 0.00 sec. (0.00 ticks)
Tried aggregator 1 time.
Presolve time = 0.00 sec. (0.01 ticks)
Found incumbent of value 33.000000 after 0.00 sec. (0.04 ticks)
Probing time = 0.00 sec. (0.01 ticks)
Tried aggregator 1 time.
Presolve time = 0.00 sec. (0.01 ticks)
Probing time = 0.00 sec. (0.01 ticks)
Clique table members: 7.
MIP emphasis: balance optimality and feasibility.
MIP search method: dynamic search.
Parallel mode: deterministic, using up to 4 threads.
Root relaxation solution time = 0.00 sec. (0.01 ticks)

        Nodes                                         Cuts/
   Node  Left     Objective  IInf  Best Integer    Best Bound    ItCnt     Gap

*     0+    0                           33.0000        0.0000        3  100.00%
*     0+    0                           29.0000        0.0000        3  100.00%
      0     0        cutoff             29.0000       29.0000        3    0.00%

Root node processing (before b&c):
  Real time             =    0.00 sec. (0.03 ticks)
Parallel b&c, 4 threads:
  Real time             =    0.00 sec. (0.00 ticks)
  Sync time (average)   =    0.00 sec.
  Wait time (average)   =    0.00 sec.
                          ------------
Total (root+branch&cut) =    0.00 sec. (0.03 ticks)

Solution pool: 2 solutions saved.

MIP - Integer optimal solution:  Objective =  2.9000000000e+01
Solution time =    0.00 sec.  Iterations = 3  Nodes = 0
Deterministic time = 0.09 ticks  (27.66 ticks/sec)


Solution pool written to file '/Users/mike/CmplServer/127.0.0.1-2013-09-29-11-08-59-908667/assignment.gsol'.
